\* Custo Minimo - Loja de Animais *\
Minimize
Total_custos: 2 Racao_A + 3 Racao_B + 5 Racao_C + 6 Racao_D + 8 Racao_E
 + 8 Racao_F
Subject To
Carboidratos_requeridos: 50 Racao_A + 30 Racao_B + 20 Racao_C + 25 Racao_D
 + 50 Racao_E + 20 Racao_F >= 100
Gorduras_requeridas: 4 Racao_A + 9 Racao_B + 11 Racao_C + 10 Racao_D
 + 9 Racao_E + 10 Racao_F >= 20
Proteinas_requeridas: 20 Racao_A + 30 Racao_B + 40 Racao_C + 40 Racao_D
 + 45 Racao_E + 30 Racao_F >= 70
End
